c 
c U(n,d) graph
c graph gen seed     : 30851
c number of vertices : 25
c max number of edges: 500
c Euclidean distance : 0.400000
c data structure     : sparse
c
c           Graph Stats
c number of vertices  : 25
c nonisolated vertices: 25
c number of edges     : 94
c edge density        : 0.313333
c max degree          : 12
c avg degree          : 7.52
c min degree          : 4
p col 25 94
e 1 23
e 1 21
e 1 19
e 1 15
e 1 14
e 1 11
e 1 9
e 1 7
e 1 6
e 2 20
e 2 19
e 2 14
e 2 12
e 2 6
e 2 5
e 3 25
e 3 23
e 3 22
e 3 18
e 3 11
e 3 9
e 3 7
e 3 4
e 4 25
e 4 23
e 4 22
e 4 18
e 4 11
e 4 9
e 4 7
e 5 20
e 5 19
e 5 14
e 5 12
e 5 6
e 6 24
e 6 20
e 6 19
e 6 14
e 6 12
e 6 10
e 6 8
e 6 7
e 7 23
e 7 22
e 7 21
e 7 19
e 7 14
e 7 11
e 7 10
e 7 9
e 8 24
e 8 20
e 8 19
e 8 17
e 8 16
e 8 10
e 9 25
e 9 23
e 9 22
e 9 18
e 9 11
e 9 10
e 10 24
e 10 23
e 10 17
e 10 16
e 11 25
e 11 23
e 11 22
e 11 21
e 11 15
e 11 13
e 12 20
e 12 19
e 12 14
e 13 22
e 13 21
e 13 15
e 14 21
e 14 19
e 14 15
e 15 21
e 16 24
e 16 17
e 17 24
e 18 25
e 18 23
e 18 22
e 19 20
e 20 24
e 22 25
e 22 23
e 23 25
